#######################################
### Exact MIP solver for the HHCRSP ###
#######################################
-- Instance file: new-instances/HHCRSP_300_60_49_1.2_C_RC.txt
-- Max threads: 4
-- Time limit: 999999 seconds
-- Use initial solution: No
Trivial flow violations prevented generating 1212306 variables.
Version identifier: 20.1.0.0 | 2020-11-10 | 9bedb6d68
CPXPARAM_Threads                                 4
CPXPARAM_TimeLimit                               999999
Parallel mode: deterministic, using up to 4 threads for concurrent optimization:
 * Starting dual Simplex on 1 thread...
 * Starting Barrier on 3 threads...
Tried aggregator 1 time.
LP Presolve eliminated 49956 rows and 11883 columns.
Reduced LP has 1401634 rows, 1329241 columns, and 32958410 nonzeros.
Presolve time = 36.46 sec. (7186.72 ticks)
Symmetry aggregator did 2311974 additional substitutions.

Iteration log . . .
Iteration:     1   Dual objective     =             0.000000
Iteration:  1380   Dual objective     =           369.000000

Dual crossover.
  Dual:  Fixing 1912 variables.
     1911 DMoves:  Infeasibility  1.52217128e-12  Objective  3.69333333e+02
        0 DMoves:  Infeasibility  8.53705999e-13  Objective  3.69333333e+02
  Dual:  Pushed 39, exchanged 1873.
  Primal:  Fixing 1372 variables.
     1371 PMoves:  Infeasibility  5.55111512e-17  Objective  3.69333333e+02
        0 PMoves:  Infeasibility  5.55111512e-17  Objective  3.69333333e+02
  Primal:  Pushed 1223, exchanged 149.

Dual simplex solved model.


Solution status from MIP model:
-- Processing time: 60.864 sec.
-- Memory used: 1226.55 MB
-- Best bound: inf
-- Obj value: 369.333
-- Gap: inf%
-- Total distance: 1108
-- Total tardiness: 0
-- Largest tardiness: 0
